(set-logic HORN)
(set-info :source |
    Benchmark: C_VC
    Output by Princess (http://www.philipp.ruemmer.org/princess.shtml)
|)
(set-info :status unknown)
(declare-fun inv_main22 (Int Int) Bool)
(declare-fun inv_main7 (Int Int Int Int Int) Bool)
(assert (forall ((var0 Int) (var1 Int) (var2 Int) (var3 Int) (var4 Int)) (or (not (and (and (and (= 0 var3) (= 0 var0)) (= 0 var2)) (= 0 var1))) (inv_main7 var4 var3 var0 var2 var1))))
(assert (forall ((var0 Int) (var1 Int) (var2 Int)) (or (not (and (inv_main22 var2 (+ var1 (- 1))) (and (not (= var0 0)) (<= 0 (+ var2 (* (- 1) (+ var1 (- 1)))))))) (inv_main22 var2 var1))))
(assert (forall ((var0 Int) (var1 Int)) (or (not (and (inv_main22 var1 (+ var0 (- 2))) (<= 0 (+ var1 (* (- 1) (+ var0 (- 2))))))) (inv_main22 var1 var0))))
(assert (forall ((var0 Int) (var1 Int) (var2 Int) (var3 Int) (var4 Int) (var5 Int) (var6 Int)) (or (not (and (inv_main7 var1 var4 var5 var6 var2) (and (and (not (= var1 0)) (= (+ (+ var4 (* (- 2) var5)) 2) var0)) (= 0 var3)))) (inv_main22 var0 var3))))
(assert (forall ((var0 Int) (var1 Int) (var2 Int) (var3 Int) (var4 Int) (var5 Int) (var6 Int)) (or (not (and (inv_main7 0 var3 var5 var6 var2) (and (and (= var1 0) (= 1 var0)) (= 0 var4)))) (inv_main22 var0 var4))))
(assert (forall ((var0 Int) (var1 Int) (var2 Int) (var3 Int) (var4 Int) (var5 Int) (var6 Int) (var7 Int)) (or (not (and (inv_main7 var0 var1 var5 (+ var6 (- 1)) (+ var2 (- 1))) (and (and (and (not (= var0 0)) (not (= var3 0))) (= (+ (+ var1 (+ (+ var2 (- 1)) 1)) (+ (+ var6 (- 1)) 1)) var7)) (= (+ var5 (+ (+ var6 (- 1)) 1)) var4)))) (inv_main7 var0 var7 var4 var6 var2))))
(assert (forall ((var0 Int) (var1 Int) (var2 Int) (var3 Int) (var4 Int) (var5 Int) (var6 Int) (var7 Int)) (or (not (and (inv_main7 0 var1 var6 (+ var3 (- 1)) (+ var7 (- 1))) (and (and (and (not (= var4 0)) (= (+ var1 (+ (+ var7 (- 1)) 1)) var5)) (= (+ var6 (+ (+ var3 (- 1)) 1)) var2)) (= var0 0)))) (inv_main7 var0 var5 var2 var3 var7))))
(assert (forall ((var0 Int) (var1 Int)) (not (and (inv_main22 var1 var0) (not (or (<= 0 (+ 4 (* (- 1) var0))) (<= 0 (+ var1 (* (- 1) var0)))))))))
(check-sat)
